65
150
120	1
119	2
118	1
116	2
115	1
114	2
113	2
111	1
110	2
109	1
107	3
106	2
105	1
104	2
103	2
102	2
101	2
100	2
99	1
98	2
97	4
95	1
94	2
93	2
92	1
89	1
87	3
85	1
84	1
83	1
82	1
80	2
74	1
73	1
72	1
69	1
67	1
66	2
65	1
62	1
61	3
60	1
59	1
58	1
56	1
55	1
54	2
53	1
52	1
51	3
50	1
48	4
47	1
46	1
43	1
42	1
41	1
39	2
38	2
37	2
36	1
35	1
33	1
32	2
30	1
